NAME
ROWS
 N  OBJ00000 
 L  ROW00001
COLUMNS
    COL00001  OBJ00000   1.00000E+00
    COL00001  ROW00001   1.00000E+00
RHS
    RHS       ROW00001   2.00000E+00
BOUNDS
    LO BND    COL00001   1.00000E+00
ENDATA
